[TITLE]

[JUNCTIONS]
;ID                      Elevation       Demand Pattern                 
 StreetConnection                   0               0                            ;
 Meter                            0.5    5.1070259833 demand_pattern             ;
 Manifold                         1.5               0                            ;
 MAIN_TRUNK_2                       0               0                            ;
 UPPER_FLOOR_BRANCH               1.5               0                            ;
 KITCHEN_BRANCH                     0               0                            ;
 POWDER_ROOM_BRANCH                 0               0                            ;
 KITCHEN_SINK                       0               0                            ;
 DISHWASHER                         0               0                            ;
 POWDER_ROOM_WC                     0               0                            ;
 POWDER_ROOM_LAV                    0               0                            ;
 HOSE_BIBB_FRONT                    0               0                            ;
 HOSE_BIBB_BACK                     0               0                            ;
 ENSUITE_WC                         3               0                            ;
 ENSUITE_LAV                        3               0                            ;
 ENSUITE_SHOWER                     3               0                            ;
 FAMILY_BATH_WC                     3               0                            ;
 FAMILY_BATH_LAV                    3               0                            ;
 FAMILY_BATH_TUB                    3               0                            ;
 LAUNDRY_SINK                    -2.5               0                            ;
 WATER_HEATER                    -2.5               0                            ;

[RESERVOIRS]
;ID                                   Head                  Pattern
 Municipal                         60                            ;

[TANKS]
;ID                              Elevation           Init Level            Min Level            Max Level             Diameter           Min Volume Volume Curve         Overflow            

[PIPES]
;ID                   Node1                Node2                              Length             Diameter            Roughness           Minor Loss               Status
 ServiceLine          Municipal            StreetConnection                  10           19.05             130               0                 Open   ;
 ToMeter              StreetConnection     Meter                              2           19.05             130               0                 Open   ;
 MainSupply           Meter                Manifold                           6           19.05             130               0                 Open   ;
 P_MAIN_2             Manifold             MAIN_TRUNK_2                       8           19.05             130               0                 Open   ;
 P_KITCHEN_BRANCH     Manifold             KITCHEN_BRANCH                     3            12.7             130               0                 Open   ;
 P_KITCHEN_SINK       KITCHEN_BRANCH       KITCHEN_SINK                       2            12.7             130               0                 Open   ;
 P_DISHWASHER         KITCHEN_BRANCH       DISHWASHER                       1.5            12.7             130               0                 Open   ;
 P_POWDER_BRANCH      Manifold             POWDER_ROOM_BRANCH                 4            12.7             130               0                 Open   ;
 P_POWDER_WC          POWDER_ROOM_BRANCH   POWDER_ROOM_WC                     2            12.7             130               0                 Open   ;
 P_POWDER_LAV         POWDER_ROOM_BRANCH   POWDER_ROOM_LAV                  1.5            12.7             130               0                 Open   ;
 P_UPPER_BRANCH       MAIN_TRUNK_2         UPPER_FLOOR_BRANCH                 6            12.7             130               0                 Open   ;
 P_ENS_WC             UPPER_FLOOR_BRANCH   ENSUITE_WC                         3            12.7             130               0                 Open   ;
 P_ENS_LAV            UPPER_FLOOR_BRANCH   ENSUITE_LAV                      2.5            12.7             130               0                 Open   ;
 P_ENS_SHWR           UPPER_FLOOR_BRANCH   ENSUITE_SHOWER                     2            12.7             130               0                 Open   ;
 P_FAM_WC             UPPER_FLOOR_BRANCH   FAMILY_BATH_WC                     4            12.7             130               0                 Open   ;
 P_FAM_LAV            UPPER_FLOOR_BRANCH   FAMILY_BATH_LAV                  3.5            12.7             130               0                 Open   ;
 P_FAM_TUB            UPPER_FLOOR_BRANCH   FAMILY_BATH_TUB                    3            12.7             130               0                 Open   ;
 P_LAUNDRY            MAIN_TRUNK_2         LAUNDRY_SINK                       5            12.7             130               0                 Open   ;
 P_WATER_HEATER       MAIN_TRUNK_2         WATER_HEATER                       3            12.7             130               0                 Open   ;
 P_HOSE_FRONT         Manifold             HOSE_BIBB_FRONT                    8            12.7             130               0                 Open   ;
 P_HOSE_BACK          MAIN_TRUNK_2         HOSE_BIBB_BACK                     6            12.7             130               0                 Open   ;

[PUMPS]
;ID                   Node1                Node2                Properties          

[VALVES]
;ID                   Node1                Node2                            Diameter Type              Setting           Minor Loss

[TAGS]
;type      name       tag       

[DEMANDS]
;ID        Demand     Pattern   

[STATUS]
;ID        Setting   

[PATTERNS]
;ID        Multipliers

demand_pattern 0.000000 0.009134 0.000000 0.011323 0.000000 0.029294
demand_pattern 0.011949 0.002860 0.003094 0.031702 0.011927 0.043615
demand_pattern 0.021732 0.011454 0.004362 0.046863 0.003224 0.006428
demand_pattern 0.000000 0.007016 0.033868 0.020790 0.031045 0.025675
demand_pattern 0.029461 0.001787 0.035401 0.004962 0.000000 0.017490
demand_pattern 0.009035 0.000000 0.000000 0.038899 0.004190 0.042919
demand_pattern 0.000000 0.000000 0.038458 0.008046 3.852013 0.006445
demand_pattern 0.016366 0.000000 0.010867 0.005136 0.003032 0.002323
demand_pattern 0.025966 0.015132 0.019026 0.015306 0.000000 0.000000
demand_pattern 0.003235 0.016832 0.025883 0.000000 0.015385 0.000000
demand_pattern 0.022157 0.005160 0.000000 0.000000 0.024824 0.010851
demand_pattern 3.794912 0.015581 0.014056 0.032610 0.001162 0.047918
demand_pattern 0.000000 0.027969 0.010956 0.007202 0.014033 0.000000
demand_pattern 0.007609 0.026530 0.000000 0.000000 0.006844 0.008071
demand_pattern 0.000000 0.000000 0.018125 0.000000 0.035439 0.003622
demand_pattern 0.022048 0.000000 0.019053 0.000000 0.000748 0.007142
demand_pattern 0.024391 0.000000 0.081718 0.000142 0.015853 0.000000
demand_pattern 0.017218 0.011790 0.014493 0.027437 0.008837 0.000000
demand_pattern 0.015531 0.009116 0.023268 0.021024 0.039291 0.033117
demand_pattern 0.004086 0.010146 0.008073 0.000000 0.005729 0.045061
demand_pattern 0.000000 0.007834 0.000000 0.000000 0.042942 0.013495
demand_pattern 0.000000 0.008415 0.011400 0.000000 0.032759 0.024806
demand_pattern 0.037922 0.012139 0.000261 0.047946 0.015170 0.024014
demand_pattern 0.010323 0.006453 0.014633 0.014999 0.037195 1.945898
demand_pattern 0.000000 0.021694 0.048259 0.023776 0.029265 3.827610
demand_pattern 0.022801 0.000000 0.029693 0.000000 0.036747 0.004272
demand_pattern 0.000000 0.000000 0.000000 0.031453 0.028515 0.027686
demand_pattern 0.000000 0.000000 0.002521 0.003772 0.004708 0.008958
demand_pattern 0.016962 0.000000 0.000000 0.000000 3.840065 0.019632
demand_pattern 0.000000 0.020519 0.005768 0.034673 0.014720 3.844193
demand_pattern 0.000000 0.009190 0.004131 0.000000 0.000000 0.004617
demand_pattern 0.000000 0.022448 0.035893 0.024846 0.019647 0.000000
demand_pattern 0.024979 0.036617 0.000000 0.025680 0.038750 0.002982
demand_pattern 0.002005 0.000000 0.000755 0.005833 0.005533 0.025765
demand_pattern 0.000000 0.075679 0.004324 0.002775 0.010751 0.000000
demand_pattern 0.000000 0.000000 0.014409 0.005049 0.016058 0.000000
demand_pattern 0.012904 0.000000 0.000000 0.019577 0.000000 0.015705
demand_pattern 0.026486 0.029096 0.015564 0.005877 0.000000 0.035718
demand_pattern 0.026506 0.029601 0.019123 0.024015 0.047723 0.013454
demand_pattern 0.000000 0.035877 0.025421 0.026598 0.000000 0.043538
demand_pattern 0.016652 0.014751 0.000980 0.003939 0.000000 0.000000
demand_pattern 0.012727 0.030667 3.821053 0.001979 0.026804 0.000000
demand_pattern 0.000972 0.000000 0.035532 0.006176 0.000000 0.000000
demand_pattern 0.000000 0.024180 0.000000 0.003581 0.028497 0.016516
demand_pattern 0.039474 0.005110 0.051269 0.000000 0.006602 0.000000
demand_pattern 0.014528 0.026280 0.011005 0.042056 0.034945 0.010309
demand_pattern 0.012867 0.000000 0.011007 0.024299 0.018754 0.003155
demand_pattern 0.027238 0.000000 0.023257 0.011597 0.031894 0.018338
demand_pattern 0.005874 0.000000 0.015747 0.015182 0.000000 0.002540
demand_pattern 0.008392 0.038558 0.010037 0.029700 0.005487 0.032181
demand_pattern 0.000000 0.042927 0.000000 0.010957 0.038157 0.016515
demand_pattern 0.039703 0.011158 0.030707 0.024722 0.044996 0.000000
demand_pattern 0.000000 0.000000 0.003787 0.000000 0.000000 0.000000
demand_pattern 0.030300 0.003512 0.000000 0.023834 0.004093 0.038199
demand_pattern 0.000000 0.000000 0.000000 0.028704 0.000000 0.028678
demand_pattern 0.000000 0.069946 0.017235 0.000000 0.007948 0.028929
demand_pattern 0.006365 0.018242 0.042142 0.029353 3.848621 0.007940
demand_pattern 0.033625 0.000000 0.000525 0.000000 0.019339 0.000000
demand_pattern 0.031684 0.032902 0.027253 0.000000 0.002431 0.000000
demand_pattern 0.000000 0.000000 0.013668 0.000000 0.027037 0.040726
demand_pattern 0.000000 0.019746 3.836373 0.000000 3.831889 0.014635
demand_pattern 0.000000 0.000000 0.000000 0.010249 0.000000 0.000000
demand_pattern 0.018303 0.019459 0.048662 0.000000 0.011082 0.000000
demand_pattern 3.850600 0.001875 0.032799 0.039183 0.008787 0.000000
demand_pattern 0.000000 0.018588 0.028932 0.049612 0.000000 0.000000
demand_pattern 0.032091 0.016587 0.020072 3.865868 0.003588 7.633694
demand_pattern 7.665671 7.643590 3.838455 0.003890 0.000000 0.040783
demand_pattern 0.022293 0.000000 3.857565 3.823441 0.071565 3.806607
demand_pattern 0.011826 0.005944 0.000000 0.000000 0.000000 0.000000
demand_pattern 3.843368 0.009947 0.035499 3.823034 0.029876 0.013083
demand_pattern 0.000000 0.000000 0.011982 1.935190 0.010978 10.833849
demand_pattern 10.849228 10.838788 10.857055 10.825397 14.708626 5.420877
demand_pattern 1.922362 0.041050 3.811707 0.012385 0.000000 0.003313
demand_pattern 0.006886 0.045611 0.030224 0.007829 0.000000 0.025391
demand_pattern 0.004620 0.007301 0.002766 0.009122 0.011074 0.000000
demand_pattern 0.010432 0.051538 0.000383 3.843240 1.919257 0.000000
demand_pattern 0.000000 0.021353 1.907665 0.029943 0.000000 0.000000
demand_pattern 0.000000 0.014576 0.016748 1.906902 0.000000 0.000000
demand_pattern 0.013599 0.010818 0.020663 0.027564 0.009516 0.000000
demand_pattern 0.020972 0.006818 0.071455 0.000000 0.007911 0.029242
demand_pattern 0.003396 0.021239 0.000000 0.000000 0.000000 3.840443
demand_pattern 0.000000 0.018773 0.000000 0.000000 0.029020 0.061942
demand_pattern 0.015091 0.000000 0.023814 3.796154 5.723536 0.034076
demand_pattern 0.000000 0.032547 0.016361 0.019605 0.006773 0.042076
demand_pattern 0.007109 0.009163 0.031862 0.034817 0.040150 0.002737
demand_pattern 0.000000 0.011329 3.829828 0.003794 5.739752 0.007458
demand_pattern 0.016115 0.059834 1.900188 0.049941 0.007337 0.033997
demand_pattern 0.031136 0.020453 0.031638 0.005886 0.009374 0.000000
demand_pattern 0.016931 0.001552 3.803290 0.008777 0.016742 0.011963
demand_pattern 0.025209 0.004692 0.000000 0.002972 3.838694 3.843263
demand_pattern 11.501722 11.516775 7.642271 7.677448 7.684849 7.668196
demand_pattern 7.667775 7.681777 7.627770 7.664434 7.674440 7.652649
demand_pattern 7.646665 7.657914 7.658125 7.663398 7.710635 7.653618
demand_pattern 7.705901 7.670324 7.651466 7.674908 7.663840 7.679994
demand_pattern 7.654828 7.652553 7.631674 7.670955 7.666884 7.682329
demand_pattern 7.658465 7.666133 7.692965 7.691859 7.648636 7.663463
demand_pattern 7.632918 7.663478 7.672159 7.655536 0.032068 0.015827
demand_pattern 3.859054 0.018119 0.003322 0.025555 0.017846 0.000000
demand_pattern 0.000000 0.007119 0.001142 0.012250 0.022310 0.000000
demand_pattern 0.000000 0.023699 0.010707 0.026056 0.055586 0.000000
demand_pattern 0.000000 0.000000 0.000000 0.000000 0.044249 0.025040
demand_pattern 0.025197 0.022640 0.005479 0.013426 0.000000 0.000000
demand_pattern 0.000000 0.049104 0.031042 0.033612 0.028565 0.040563
demand_pattern 0.019307 0.000000 0.014548 0.013299 0.000000 0.000000
demand_pattern 0.000000 0.000000 0.018987 0.034176 0.002053 0.040626
demand_pattern 0.000000 0.000669 0.017913 0.034477 0.008598 0.049743
demand_pattern 0.007331 0.005603 0.000000 0.006891 0.000000 0.034573
demand_pattern 0.005607 1.946172 0.018024 0.028037 0.000000 0.017655
demand_pattern 0.029705 0.011891 0.025284 0.002649 0.005102 0.023290
demand_pattern 0.023504 0.016436 0.018280 0.003526 0.000000 0.036286
demand_pattern 1.930712 0.000000 0.016726 0.017232 0.019326 0.012943
demand_pattern 0.000000 0.018175 0.000000 0.000000 0.010628 0.015161
demand_pattern 0.000000 3.829220 0.000000 0.046343 0.004057 0.000000
demand_pattern 3.882382 0.000000 0.009065 0.040729 0.000000 0.000000
demand_pattern 0.001188 0.019993 0.000000 0.037745 0.011631 0.009499
demand_pattern 0.000000 0.025407 0.003280 0.001877 0.004921 0.047972
demand_pattern 0.010117 0.036425 0.000000 0.000000 0.006765 0.024290
demand_pattern 0.000000 0.009474 0.005050 0.028250 0.031513 0.000000
demand_pattern 0.006332 0.007115 0.020476 0.024290 0.000000 0.020766
demand_pattern 0.040125 0.036884 0.000558 0.006505 0.008289 0.030966
demand_pattern 0.000000 0.027109 0.000000 0.048498 0.000000 0.004505
demand_pattern 0.006200 0.007866 0.031683 0.000000 3.866555 3.856188
demand_pattern 0.000000 0.010819 0.001697 0.001416 0.005556 0.023710
demand_pattern 0.015354 0.040040 0.009065 3.862319 3.862531 3.843905
demand_pattern 3.837137 0.000000 0.035908 0.000000 0.008236 0.019917
demand_pattern 0.036354 0.000909 0.000000 3.867980 3.818676 3.868361
demand_pattern 0.007470 0.000000 0.000000 0.000000 0.014749 0.020104
demand_pattern 0.039889 0.022243 0.047327 0.018167 0.000031 0.000000
demand_pattern 0.024861 3.811757 3.816054 3.835553 3.850944 0.000000
demand_pattern 0.024044 0.000000 0.000000 0.025837 0.031814 0.033943
demand_pattern 1.934935 0.047011 0.035477 0.000000 0.013364 0.023563
demand_pattern 0.009548 0.017766 0.012636 0.042123 0.041479 0.014482
demand_pattern 0.011867 0.000000 0.021636 0.032960 0.018431 0.006198
demand_pattern 3.846010 0.038600 0.019985 0.028049 0.000000 0.006944
demand_pattern 0.000000 0.000000 0.015314 0.019312 0.009727 0.001561
demand_pattern 0.016108 0.018482 0.031771 0.000000 0.000000 0.000000
demand_pattern 0.023027 0.011104 0.011379 0.030472 0.039205 0.000000
demand_pattern 0.055116 0.000000 1.910079 0.005266 0.012741 0.000000
demand_pattern 0.036867 0.003164 0.003445 0.007496 0.000000 0.000000
demand_pattern 0.009821 0.022787 0.010936 0.000000 0.000000 0.016431
demand_pattern 0.022312 0.019147 0.000000 0.000000 0.006325 0.004457
demand_pattern 0.016565 0.028046 0.000000 0.000000 0.006518 0.000000
demand_pattern 0.022749 0.000000 0.030894 0.014490 0.023926 0.000000
demand_pattern 0.010817 0.000000 0.010334 0.004758 0.000000 0.029238
demand_pattern 0.022686 0.000000 0.040291 0.000000 0.056298 0.009114
demand_pattern 0.000000 0.000000 0.007518 0.016347 0.018244 0.000000
demand_pattern 0.005626 0.000000 0.021358 1.922786 0.005684 0.054475
demand_pattern 0.039286 0.034020 0.000000 0.008438 0.000000 0.000000
demand_pattern 0.000000 0.025901 0.000000 0.000000 0.019056 0.001810
demand_pattern 0.003771 0.022759 0.000000 0.000000 0.000000 0.018365
demand_pattern 0.000000 0.021458 0.000471 0.018341 0.000000 0.000000
demand_pattern 0.000000 0.017619 0.011013 0.005624 0.009488 0.010120
demand_pattern 0.021569 0.021383 0.018076 0.027016 1.966019 0.000000
demand_pattern 0.049444 0.011694 0.014850 0.050084 0.010903 0.036296
demand_pattern 0.000000 0.026843 0.000000 0.027965 0.021420 0.012406
demand_pattern 0.000000 0.021758 0.018153 0.040429 0.000000 0.016679
demand_pattern 0.014769 0.000000 0.000000 0.006951 0.039773 0.000000
demand_pattern 0.000000 0.041344 0.000000 0.030340 0.028677 0.000000
demand_pattern 0.029700 0.015270 0.027112 0.000000 0.052676 0.004019
demand_pattern 0.003363 0.018140 0.003051 0.029873 0.000000 0.046717
demand_pattern 0.019758 0.000000 0.010217 0.009879 0.029943 0.000000
demand_pattern 0.029834 0.018898 3.839632 3.846655 0.000000 0.038903
demand_pattern 0.004183 0.023546 0.048528 0.020590 0.000000 0.000389
demand_pattern 0.039691 0.011298 0.000000 0.017599 0.009503 0.029135
demand_pattern 0.011988 0.023323 3.844359 0.025835 0.004312 0.024632
demand_pattern 0.053125 0.018394 0.000000 0.020368 0.000000 0.001510
demand_pattern 0.013697 0.003865 0.032446 0.000000 0.026280 0.000000
demand_pattern 0.000000 0.000000 0.000000 0.020733 0.000000 0.024022
demand_pattern 0.000158 0.023519 0.038741 0.028119 0.000000 0.039311
demand_pattern 0.017317 0.014877 0.000000 0.013953 0.007988 0.008293
demand_pattern 0.020115 0.003858 0.011955 0.017218 0.007904 0.016497
demand_pattern 0.021512 0.021097 0.007859 0.032932 0.008307 0.014258
demand_pattern 0.013855 0.022872 0.020150 0.043773 0.000000 0.009376
demand_pattern 0.000000 3.819445 0.023367 0.000000 0.000000 0.010546
demand_pattern 0.014122 0.040692 0.012642 0.044563 0.013754 3.834734
demand_pattern 0.007088 0.023719 3.846061 0.000000 0.020023 0.000279
demand_pattern 0.000000 0.000000 0.032763 0.012624 0.000000 0.000000
demand_pattern 0.044515 0.005349 0.037421 0.027472 0.012322 0.025826
demand_pattern 0.000000 0.041579 0.000000 0.029075 0.004027 0.000000
demand_pattern 0.018499 0.053456 0.000000 0.000000 0.029166 0.036384
demand_pattern 0.044872 0.001607 0.019047 0.029243 0.000000 0.000000
demand_pattern 0.025242 0.009842 0.009088 0.032856 0.031193 0.013461
demand_pattern 0.013368 0.019872 0.000000 0.035771 0.031995 0.013499
demand_pattern 0.017405 0.018341 0.012562 0.000000 0.014513 0.016463
demand_pattern 0.017451 0.009286 0.000000 0.000000 0.000000 0.000000
demand_pattern 0.031138 0.000000 0.004497 0.045360 0.033163 0.000000
demand_pattern 0.058634 0.042561 0.000000 0.042421 0.000000 0.026706
demand_pattern 0.016809 3.837566 0.012622 0.000000 5.721221 0.023619
demand_pattern 0.014787 0.025127 0.025222 0.000000 0.013085 0.000000
demand_pattern 0.013866 0.000000 0.025751 0.000000 0.014505 0.046648
demand_pattern 0.031676 0.021121 3.844741 3.859378 3.791302 0.000000
demand_pattern 0.018041 0.024469 0.015855 0.000000 0.017067 0.017590
demand_pattern 0.000000 0.010432 0.007933 0.001456 0.000000 3.844966
demand_pattern 0.055029 3.850404 3.831536 3.804448 3.866990 3.834350
demand_pattern 3.824787 3.879389 3.824371 9.293660 9.296073 9.260919
demand_pattern 9.264529 9.242592 9.259306 9.255228 9.250448 9.223932
demand_pattern 9.258571 9.271494 9.241985 3.867167 3.842346 3.838278
demand_pattern 11.496489 3.824545 3.828467 3.830243 3.832757 3.837111
demand_pattern 3.858909 3.831385 3.816878 3.882081 7.714542 3.844687
demand_pattern 7.633510 3.830181 3.837074 3.822759 3.827387 3.855227
demand_pattern 3.832769 5.732771 3.807800 3.873175 3.843323 7.674722
demand_pattern 7.699629 3.829034 3.846290 3.846543 3.818035 3.821115
demand_pattern 3.858142 3.830782 3.849805 7.658740 5.772627 3.804899
demand_pattern 3.834446 0.000000 0.018404 0.000000 0.000000 3.828030
demand_pattern 0.034974 0.033207 0.020725 0.019839 0.000000 0.021908
demand_pattern 0.000000 0.000000 0.000000 0.064303 0.034976 0.008100
demand_pattern 0.014634 0.015339 0.014226 0.030548 0.012423 0.019051
demand_pattern 0.000000 0.029052 0.003631 0.013206 0.000000 0.020315
demand_pattern 5.422058 5.426678 5.405244 9.254742 5.442866 0.011160
demand_pattern 0.004569 0.030367 0.029591 3.819607 3.819522 3.818633
demand_pattern 3.876581 3.800701 7.676758 3.848490 3.809145 3.831049
demand_pattern 3.837535 3.847722 3.840916 7.679404 3.818583 3.814912
demand_pattern 9.583857 3.836197 3.836263 3.808375 3.859144 3.821671
demand_pattern 7.653762 3.861985 3.822678 3.818551 3.855036 3.840610
demand_pattern 3.857887 3.852427 7.659415 7.665934 7.699875 3.842374
demand_pattern 3.797444 3.837848 3.829180 3.823975 3.848489 3.860384
demand_pattern 3.837022 3.863709 3.847827 3.809427 3.831996 3.852728
demand_pattern 3.866958 3.825756 3.825086 3.816384 3.834822 3.802364
demand_pattern 3.841328 3.840835 3.806647 3.846024 3.847169 3.820272
demand_pattern 3.840127 3.804052 3.819195 0.025326 1.924839 5.427237
demand_pattern 5.424821 5.422956 5.429631 5.427875 7.332375 5.400405
demand_pattern 5.422449 5.409465 5.410975 9.203317 5.411140 0.006950
demand_pattern 0.000516 0.017910 0.000000 0.000000 0.031367 0.000000
demand_pattern 0.000000 5.430728 5.387725 5.421182 5.409438 5.443867
demand_pattern 5.430985 5.453286 5.395586 5.429234 5.426726 5.402154
demand_pattern 5.446871 0.000000 0.000000 0.028823 0.000000 0.000000
demand_pattern 0.041198 0.024858 1.931423 0.027201 0.000000 0.030820
demand_pattern 0.024433 0.003293 0.016887 0.000000 0.026419 1.912081
demand_pattern 0.037541 0.000000 0.008777 0.000000 0.001904 0.035631
demand_pattern 0.019277 0.000000 0.000000 1.941970 0.028796 0.008220
demand_pattern 0.018228 0.024416 0.035154 0.017524 0.034911 0.000000
demand_pattern 0.002467 0.014974 0.000000 0.000000 0.009004 0.000000
demand_pattern 0.009447 0.053009 3.860410 0.046975 0.000000 0.000000
demand_pattern 0.016431 0.000000 0.010489 0.059312 0.032931 0.000000
demand_pattern 0.002495 0.043521 0.000000 0.021990 0.007123 0.000000
demand_pattern 0.000000 0.016595 0.006287 0.000000 0.037960 0.023774
demand_pattern 0.015864 0.000000 0.041937 0.000000 0.013141 0.000000
demand_pattern 0.000000 0.009333 0.021852 0.053583 0.000000 0.037445
demand_pattern 0.010627 0.016204 0.043507 0.007642 0.000000 0.030588
demand_pattern 0.000000 0.009498 0.002985 0.008759 0.000000 0.004665
demand_pattern 0.004665

[CURVES]
;ID         X-Value      Y-Value     

[CONTROLS]

[RULES]

[ENERGY]
GLOBAL PRICE           0.0000

[EMITTERS]
;ID        Flow coefficient

[QUALITY]

[SOURCES]
;Node      Type       Quality    Pattern   

[REACTIONS]
;Type           Pipe/Tank               Coefficient

 ORDER BULK 1
 ORDER TANK 1
 ORDER WALL 1
 GLOBAL BULK 0.0000    
 GLOBAL WALL 0.0000    

[MIXING]
;Tank ID             Model Fraction

[TIMES]
DURATION             24:00:00
HYDRAULIC TIMESTEP   00:01:00
QUALITY TIMESTEP     00:06:00
PATTERN TIMESTEP     00:01:00
PATTERN START        00:00:00
REPORT TIMESTEP      01:00:00
REPORT START         00:00:00
START CLOCKTIME      00:00:00 AM
RULE TIMESTEP        00:06:00
STATISTIC            NONE      

[REPORT]

[OPTIONS]
UNITS                LPS                 
HEADLOSS             H-W                 
SPECIFIC GRAVITY     1
VISCOSITY            1
TRIALS               200
ACCURACY             0.001
CHECKFREQ            2
MAXCHECK             10
UNBALANCED           STOP                
PATTERN              1                   
DEMAND MULTIPLIER    1
EMITTER EXPONENT     0.5
QUALITY              NONE                
DIFFUSIVITY          1
TOLERANCE            0.01

[COORDINATES]
;Node      X-Coord    Y-Coord   
Municipal           0.000000000          0.000000000
StreetConnection          0.000000000          0.000000000
Meter               0.000000000          0.000000000
Manifold            0.000000000          0.000000000
MAIN_TRUNK_2          0.000000000          0.000000000
UPPER_FLOOR_BRANCH          0.000000000          0.000000000
KITCHEN_BRANCH          0.000000000          0.000000000
POWDER_ROOM_BRANCH          0.000000000          0.000000000
KITCHEN_SINK          0.000000000          0.000000000
DISHWASHER          0.000000000          0.000000000
POWDER_ROOM_WC          0.000000000          0.000000000
POWDER_ROOM_LAV          0.000000000          0.000000000
HOSE_BIBB_FRONT          0.000000000          0.000000000
HOSE_BIBB_BACK          0.000000000          0.000000000
ENSUITE_WC          0.000000000          0.000000000
ENSUITE_LAV          0.000000000          0.000000000
ENSUITE_SHOWER          0.000000000          0.000000000
FAMILY_BATH_WC          0.000000000          0.000000000
FAMILY_BATH_LAV          0.000000000          0.000000000
FAMILY_BATH_TUB          0.000000000          0.000000000
LAUNDRY_SINK          0.000000000          0.000000000
WATER_HEATER          0.000000000          0.000000000

[VERTICES]
;Link      X-Coord    Y-Coord   

[LABELS]

[BACKDROP]
UNITS    NONE

[END]
